Instance0
Gap

0
CPXPARAM_MIP_Cuts_PathCut 0
Instance1
Gap

0
CPXPARAM_MIP_Cuts_PathCut 0
Instance2
Gap

0.35%
0.35%
0.35%
0.35%
CPXPARAM_MIP_Cuts_PathCut 0
Instance3
Gap

0.00%
0
CPXPARAM_MIP_Cuts_PathCut 0
Instance4
Gap

0
CPXPARAM_MIP_Cuts_PathCut 0
Instance5
Gap

0
CPXPARAM_MIP_Cuts_PathCut 0
Instance6
Gap
111.50%
92.96%
0.13%
0.13%
0.13%
0.13%
CPXPARAM_MIP_Cuts_PathCut 0
Instance7
Gap

23.59%
23.59%
CPXPARAM_MIP_Cuts_PathCut 0
Instance8
Gap

0
CPXPARAM_MIP_Cuts_PathCut 0
Instance9
Gap

43.98%
43.98%
CPXPARAM_MIP_Cuts_PathCut 0
Instance10
Gap

0.01%
CPXPARAM_MIP_Cuts_PathCut 0
Instance11
Gap

0.02%
0.02%
0.02%
0.02%
CPXPARAM_MIP_Cuts_PathCut 0
Instance12
Gap

35.26%
35.26%
CPXPARAM_MIP_Cuts_PathCut 0
Instance13
Gap

37.35%
37.35%
CPXPARAM_MIP_Cuts_PathCut 0
Instance14
Gap

1.86%
1.86%
1.86%
1.86%
CPXPARAM_MIP_Cuts_PathCut 0
Instance15
Gap
112.51%
98.57%
3.14%
3.14%
3.14%
3.14%
CPXPARAM_MIP_Cuts_PathCut 0
Instance16
Gap

0
CPXPARAM_MIP_Cuts_PathCut 0
Instance17
Gap

52.86%
52.86%
CPXPARAM_MIP_Cuts_PathCut 0
Instance18
Gap
110.91%
93.14%
12.16%
12.16%
CPXPARAM_MIP_Cuts_PathCut 0
Instance19
Gap
114.31%
97.72%
0.46%
0.46%
0.46%
0.46%
CPXPARAM_MIP_Cuts_PathCut 0
Instance20
Gap

0
CPXPARAM_MIP_Cuts_PathCut 0
Instance21
Gap

0
CPXPARAM_MIP_Cuts_PathCut 0
Instance22
Gap

0.39%
0.39%
0.39%
0.39%
CPXPARAM_MIP_Cuts_PathCut 0
Instance23
Gap

3.15%
3.15%
3.15%
3.15%
CPXPARAM_MIP_Cuts_PathCut 0
Instance24
Gap

10.00%
10.00%
10.00%
10.00%
CPXPARAM_MIP_Cuts_PathCut 0
Instance25
Gap

0
CPXPARAM_MIP_Cuts_PathCut 0
Instance26
Gap
0.00%
CPXPARAM_MIP_Cuts_PathCut 0
Instance27
Gap

0.42%
0.42%
0.42%
0.42%
CPXPARAM_MIP_Cuts_PathCut 0
Instance28
Gap

0
CPXPARAM_MIP_Cuts_PathCut 0
Instance29
Gap
111.49%
406.57%
82.87%
60.38%
60.38%
CPXPARAM_MIP_Cuts_PathCut 0
Instance30
Gap
120.75%
227.70%
17.33%
0.85%
0.85%
0.85%
0.85%
CPXPARAM_MIP_Cuts_PathCut 0
Instance31
Gap

5.20%
5.20%
5.20%
5.20%
CPXPARAM_MIP_Cuts_PathCut 0
Instance32
Gap

0
CPXPARAM_MIP_Cuts_PathCut 0
Instance33
Gap

0
CPXPARAM_MIP_Cuts_PathCut 0
Instance34
Gap

0.14%
0.14%
0.14%
0.14%
CPXPARAM_MIP_Cuts_PathCut 0
Instance35
Gap

13.49%
13.49%
13.49%
13.49%
CPXPARAM_MIP_Cuts_PathCut 0
Instance36
Gap

8.38%
8.38%
8.38%
8.38%
CPXPARAM_MIP_Cuts_PathCut 0
Instance37
Gap

0
CPXPARAM_MIP_Cuts_PathCut 0
Instance38
Gap

0.21%
0.21%
0.21%
0.21%
CPXPARAM_MIP_Cuts_PathCut 0
Instance39
Gap

0.50%
0.50%
0.50%
0.50%
CPXPARAM_MIP_Cuts_PathCut 0
